19,33,55,106,109,126
63,78
91
1
5
139
31,72,74
23,43,61,76
47
60
63,78
127
11
144
106
90
80
111
63
82
15
20
103
117
43
142
77
129
30
81
13
6
34
141
59
138
56
10
9
145
68
16
62
123
79
87
61
31,72,74,114
121
4
94
88
124
48,104
52
89
25,51,116,136,146
42
76
65
101
99
130
41
118,135
12
5,14,117,133
23
40
71
33
2
64
98
22
33,106
133
58
132
112
28,49,90,100,105,115
75
53
95
24,37,93,110
136
17
21
5,14,133
119
147
8
26,39,46,70,96
108
125
128
57
67
26,81
